9173.0
1 0 1 1 1 0 1 1 1 1 
9 7 7 7 7 7 7 2 2 2 2 2 2 2 2 2 2 2 2 3 3 3 2 3 3 2 3 3 3 3 3 3 3 3 3 3 3 3 3 6 8 6 8 8 8 8 8 8 8 8 3 3 6 6 6 6 6 6 6 6 6 0 4 6 6 6 0 6 6 0 0 6 0 4 7 0 0 0 0 0 0 4 4 4 4 4 4 4 4 4 4 9 9 9 4 9 2 4 9 9 